25 25 25 25 25 25 25 9 25 9 25 25 9 25 9 9 9 25 9 9 25 25 9 9 25 9 9 25 9 25 9 25 9 9 9 25 25 25 25 9 25 25 25 9 9 25 9 25 9 9 25 25 9 9 25 25 9 25 25 9 9 25 25 9 25 25 25 9 9 9 9 9 25 25 9 9 9 9 25 9 9 9 25 9 9 9 9 25 25 25 25 25 9 25 25 9 9 9 9 25 25 25 25 9 9 25 9 25 25 25 25 25 9 25 9 9 25 9 25 25 25 25 9 25 9 9 25 9 9 9 25 25 25 9 9 25 25 9 9 9 9 9 9 9 25 9 9 9 9 9 25 25 25 9 9 25 9 9 25 9 9 25 9 25 25 9 9 25 9 25 25 9 25 25 9 9 25 25 9 25 25 9 9 9 9 25 25 9 25 9 9 25 25 9 9 25 9 9 9 25 25 25 25 9 25 9 9 9 25 25 9 9 25 9 9 25 25 25 25 9 25 25 25 25 9 25 9 9 9 9 25 25 25 25 9 9 25 9 25 9 25 25 9 9 25 9 25 25 25 9 25 9 9 25 25 9 9 25 9 9 25 9 9 25 25 9 25 9 9 9 9 9 25 9 9 25 9 9 9 25 9 25 25 9 9 25 9 25 9 25 25 9 25 25 25 9 25 9 9 9 25 9 9 9 9 9 25 9 9 25 25 25 25 9 25 25 25 9 9 9 25 9 9 9 25 25 9 25 25 9 25 9 9 25 25 9 25 9 9 9 9 25 25 25 25 9 9 25 9 25 25 25 25 25 25 9 9 25 25 25 25 9 9 25 25 25 25 25 25 25 25 25 9 9 9 9 9 25 25 25 9 9 9 25 25 9 25 25 25 25 9 25 25 9 9 25 25 9 9 25 25 25 9 9 25 25 9 25 9 25 9 9 25 25 25 9 25 9 25 9 25 25 25 25 9 9 9 25 9 9 9 25 25 25 25 9 9 25 25 9 9 9 9 25 25 25 25 9 25 9 9 25 9 9 9 9 9 9 25 9 9 9 25 25 25 25 25 25 9 9 25 25 9 25 9 25 9 9 25 25 9 9 9 9 9 9 9 9 9 9 9 9 9 25 25 25 9 9 9 25 25 25 9 25 9 9 25 9 9 9 25 25 9 9 25 9 9 9 9 25 9 9 25 9 9 25 25 9 25 25 25 9 9 25 9 9 9 25 9 9 25 25 25 9 25 25 9 9 25 25 25 25 25 9 25 25 25 9 9 25 25 25 25 25 25 25 25 25 9 25 25 9 9 25 9 9 9 9 9 25 25 25 9 25 25 25 9 25 25 9 9 9 9 25 25 25 25 9 9 25 25 25 25 25 9 25 25 9 9 25 25 25 9 25 9 9 9 25 25 25 25 25 25 25 9 9 9 25 9 9 25 25 9 9 25 9 9 9 25 9 9 9 25 9 9 9 9 9 25 25 9 9 9 25 9 25 9 9 9 9 25 25 9 25 9 25 25 9 25 9 9 25 25 25 9 25 25 9 25 9 9 25 25 9 25 25 25 25 25 9 25 9 25 25 25 25 9 25 25 9 25 25 25 9 25 25 25 9 9 25 25 9 9 9 9 25 25 9 9 9 9 9 25 25 25 9 25 9 25 9 9 25 9 25 25 25 25 25 25 25 9 9 25 9 9 25 9 25 25 9 9 25 9 25 25 9 25 9 9 25 9 9 9 9 25 25 25 9 9 25 25 9 25 9 25 9 9 25 25 25 25 25 25 9 9 9 9 9 9 9 25 9 9 25 25 25 9 9 9 25 25 25 25 25 9 9 25 9 25 9 25 25 9 9 25 9 9 25 9 9 25 25 25 25 9 9 9 25 9 9 9 9 9 25 25 9 9 9 9 25 9 25 9 9 9 25 25 9 9 25 25 25 25 9 9 25 9 25 9 9 25 9 9 25 9 25 25 9 25 25 25 9 25 9 9 25 25 25 25 9 25 9 25 9 9 9 25 9 25 9 25 9 9 25 9 9 25 25 9 9 25 9 9 9 9 25 25 25 9 9 25 25 25 25 25 25 25 25 9 9 25 25 9 25 9 9 9 25 9 9 9 25 9 9 25 9 25 9 9 9 9 25 25 25 9 25 25 25 9 25 25 25 9 9 9 9 9 9 9 9 25 9 25 25 9 9 9 9 9 9 9 25 25 25 9 9 9 25 25 9 9 25 25 9 25 9 25 25 9 25 9 25 25 25 25 25 9 25 25 9 25 25 25 9 25 9 9 25 25 9 9 9 25 25 9 9 25 25 25 9 9 25 25 25 25 9 25 25 25 9 25 9 9 25 25 25 25 25 9 9 25 9 9 9 9 25 9 25 9 9 25 25 25 25 9 9 25 25 25 25 9 25 25 9 9 9 25 25 9 25 25 25 9 9 9 9 25 9 25 25 9 25 9 9 9 25 9 25 9 9 9 9 25 9 9 25 9 25 9 9 25 25 9 25 25 9 25 9 9 9 9 25 25 9 25 25 25 25 25 9 25 25 9 9 25 25 25 9 9 25 9 25 25 9 9 9 9 25 25 25 9 25 9 25 25 25 25 25 9 9 25 9 25 25 9 25 9 9 25 25 25 25 9 9 9 25 25 9 9 9 25 9 25 25 9 9 9 25 25 25 25 9 25 9 9 25 25 9 25 9 25 25 9 9 25 9 25 9 9 25 9 9 9 25 25 9 9 9 25 25 25 9 9 9 9 9 25 9 9 25 9 9 9 9 9 25 9 25 9 25 9 9 25 9 9 9 9 9 9 25 25 25 25 25 25 9 25 25 9 9 9 9 9 9 25 9 25 25 25 25 9 25 9 25 9 9 9 9 9 9 9 25 9 25 25 25 25 9 9 25 9 9 9 9 9 25 9 9 9 25 25 25 25 25 9 25 25 9 25 25 25 25 25 25 25 9 9 9 9 25 9 25 25 9 25 9 25 9 9 25 25 25 9 9 25 25 25 9 25 25 9 9 9 25 25 25 25 9 9 25 25 9 9 9 9 9 9 25 9 9 9 25 9 25 9 25 9 25 25 25 9 25 9 25 9 25 9 25 25 9 25 9 9 25 25 9 25 25 25 25 9 9 25 9 25 25 25 25 9 9 9 25 9 9 9 9 9 9 9 25 25 25 9 25 9 25 9 9 9 25 25 9 25 9 9 9 25 25 25 9 9 9 25 9 9 25 9 9 25 9 9 9 25 9 9 9 25 9 9 25 25 25 9 25 9 9 25 25 9 25 25 9 25 9 9 25 25 9 9 25 25 9 25 9 9 25 9 25 25 9 9 25 9 9 9 9 25 25 25 25 9 25 25 25 25 25 25 25 25 25 9 9 25 25 25 25 25 25 9 9 9 9 25 9 25 25 9 9 25 25 25 25 9 9 25 9 25 9 25 9 25 25 25 9 9 9 25 25 25 25 9 25 25 25 25 9 25 25 9 9 25 25 25 25 25 9 25 9 9 9 25 25 25 9 25 9 9 9 25 25 25 25 25 25 25 9 25 9 9 9 9 25 25 25 9 25 9 9 25 9 9 9 9 9 9 25 9 9 9 25 9 25 25 25 9 9 25 9 9 25 9 9 9 25 25 25 9 25 25 9 9 25 9 9 25 25 25 25 25 25 25 25 25 9 9 25 9 9 25 9 25 25 9 9 25 25 25 25 25 9 25 25 25 9 25 25 25 9 9 9 9 25 9 25 25 9 9 25 9 9 25 9 25 25 9 9 25 25 9 9 25 25 25 9 25 9 25 9 9 9 25 9 25 25 25 25 25 9 9 9 9 9 9 25 25 9 9 9 25 9 9 9 25 25 9 25 25 9 25 9 9 9 9 25 25 9 9 25 9 25 25 9 25 25 25 9 25 25 25 9 25 25 9 25 25 9 9 9 9 25 9 9 9 25 9 25 25 9 9 25 25 25 25 9 9 9 25 25 9 9 25 25 25 25 9 9 9 9 25 9 9 25 25 9 9 25 25 25 25 9 9 25 25 25 25 9 9 9 25 9 9 25 25 9 9 9 9 9 9 25 25 9 25 9 9 25 25 9 25 9 9 25 25 25 25 25 25 25 25 25 25 9 9 9 9 9 9 9 25 25 9 9 25 25 9 9 9 25 9 25 25 9 25 25 25 9 9 25 25 25 9 9 25 9 9 25 9 25 9 25 9 9 25 25 25 25 25 25 9 25 25 9 25 9 25 25 9 25 9 25 9 9 25 9 9 25 25 9 9 25 9 9 25 25 9 9 25 25 9 25 25 25 25 9 25 9 25 25 25 25 9 9 25 25 9 25 9 25 9 25 25 9 25 9 25 25 25 9 25 25 9 9 9 25 9 25 9 9 9 25 25 9 25 25 25 25 9 25 25 9 9 9 9 9 9 9 25 25 9 9 9 9 9 9 9 25 25 9 25 25 25 9 25 25 25 9 9 9 9 25 9 9 25 25 9 9 25 9 25 25 9 9 9 25 9 9 9 9 9 25 25 25 25 25 9 25 25 25 25 25 9 25 9 9 9 9 9 25 9 25 25 25 25 25 9 9 25 9 9 25 25 25 9 9 9 25 25 9 9 9 25 9 9 25 9 9 9 9 9 9 9 25 25 25 9 25 25 25 25 25 9 9 25 9 25 25 25 9 25 25 25 25 9 25 9 9 25 9 25 25 25 25 9 9 9 9 9 9 25 25 25 25 9 9 9 25 9 25 25 25 25 9 9 25 25 25 25 25 25 9 9 9 25 25 25 9 25 25 9 25 9 25 9 9 9 9 25 9 9 25 25 25 25 9 9 25 25 25 9 9 9 9 25 25 25 9 25 25 25 25 9 25 25 9 9 25 25 25 25 25 9 9 9 9 9 9 25 25 25 25 9 25 25 25 25 25 25 9 9 9 9 9 25 25 9 25 9 25 25 25 9 25 25 9 25 9 9 9 25 9 25 25 25 25 9 9 9 25 25 9 25 25 9 25 9 9 9 9 9 25 25 9 25 9 25 9 9 25 25 9 25 9 25 25 25 9 25 25 25 9 25 25 25 25 9 25 9 9 25 9 9 9 9 25 25 25 25 25 25 9 25 9 25 25 25 9 25 25 9 9 25 25 25 25 25 25 9 25 9 9 25 9 9 25 25 25 25 9 25 9 25 9 9 9 25 9 9 9 25 9 25 9 9 9 25 25 9 9 9 9 9 25 9 9 9 25 9 25 25 25 25 9 25 9 9 25 9 25 25 25 25 9 25 25 25 25 9 25 25 9 25 25 25 25 25 9 9 25 25 25 9 25 9 9 25 9 25 25 25 9 9 25 25 25 9 9 9 25 25 25 25 9 9 25 25 9 25 25 25 9 9 9 25 9 9 9 25 25 25 9 25 25 25 9 25 9 9 25 25 25 25 9 25 25 25 9 25 9 25 25 25 9 25 9 9 25 25 25 9 9 9 25 9 25 9 25 25 9 9 9 9 25 25 25 25 9 9 9 25 25 25 9 25 9 9 9 25 25 25 25 9 25 25 9 25 25 25 9 25 25 25 25 25 9 25 9 9 25 9 25 9 9 25 9 9 9 9 9 25 25 25 25 25 9 25 9 25 9 9 25 9 25 9 25 25 25 25 9 9 25 25 25 25 25 25 9 25 25 9 9 9 25 9 25 9 25 25 25 9 9 9 9 25 25 25 25 9 9 25 25 25 9 9 25 25 25 25 9 9 25 25 9 9 25 9 9 9 25 9 9 25 9 9 25 25 25 9 9 25 25 25 25 25 25 9 25 9 25 25 9 9 9 9 9 25 9 25 9 9 25 9 25 25 25 9 25 9 9 25 9 25 9 25 25 25 25 9 25 9 25 25 9 9 25 9 25 9 25 25 9 9 9 25 9 25 9 25 25 9 9 25 9 9 9 25 25 25 25 9 25 9 25 25 9 9 9 9 9 25 25 9 9 25 9 9 9 9 25 9 9 25 25 9 25 9 25 9 25 9 9 25 25 25 9 25 25 9 25 9 9 25 9 9 9 9 9 25 9 25 25 25 9 9 25 25 9 25 25 9 25 25 25 9 9 25 9 25 9 25 25 9 9 9 9 25 9 9 9 25 25 25 9 25 25 25 9 9 9 25 9 9 9 25 9 9 9 9 25 9 9 25 9 9 25 9 25 25 9 25 9 25 9 9 9 9 9 9 9 9 25 9 9 25 25 25 25 25 25 25 9 25 9 9 9 25 25 25 9 25 25 25 25 25 25 25 25 25 9 25 9 25 25 9 25 9 25 9 9 25 25 9 9 25 9 9 9 25 9 25 25 25 9 9 9 25 25 9 25 25 25 25 25 25 25 9 25 25 9 25 9 9 25 9 25 9 25 9 25 25 25 9 9 25 9 9 9 9 9 25 25 9 9 9 25 9 9 9 25 25 9 25 25 25 25 9 25 9 9 25 25 25 25 25 9 9 9 25 9 9 9 25 9 25 9 25 25 9 9 9 25 9 25 9 25 9 25 25 25 25 9 9 25 25 9 25 25 9 9 25 9 25 25 25 9 25 9 25 25 9 25 25 9 9 25 9 9 9 25 25 9 25 9 25 9 9 9 9 9 25 25 9 9 9 25 9 25 9 25 25 9 9 9 25 9 25 25 9 9 9 9 9 25 9 25 25 9 25 25 9 9 25 9 9 25 9 9 25 9 25 9 9 25 9 25 25 25 9 9 25 9 9 25 25 9 9 25 9 9 9 9 9 25 9 25 25 9 25 9 9 25 9 25 9 9 9 9 25 25 9 25 25 9 9 25 9 25 9 9 25 9 9 25 9 9 9 25 25 9 25 25 25 25 9 25 25 25 25 9 9 25 25 25 25 9 9 25 25 9 25 9 25 25 25 25 9 9 9 25 9 25 9 25 9 25 9 25 9 9 25 9 25 25 25 25 25 9 9 9 9 9 9 25 25 25 9 25 25 9 9 25 25 25 9 25 9 25 9 9 25 9 9 9 25 25 25 9 25 9 9 9 9 9 25 25 25 9 25 25 9 25 9 9 9 25 25 9 9 9 9 25 9 9 25 25 9 25 25 25 25 25 25 25 25 25 9 9 25 25 25 25 25 9 25 25 25 25 9 25 25 9 9 25 25 25 9 25 9 25 9 25 9 9 9 25 25 25 25 9 9 25 25 25 25 25 25 9 9 25 25 25 25 25 9 9 9 9 25 25 25 9 9 25 9 25 9 25 9 25 25 9 9 9 9 25 25 25 25 25 9 9 9 25 25 9 9 9 9 25 25 25 25 25 9 25 9 9 9 9 9 25 25 9 9 25 9 25 9 25 25 9 9 25 25 25 9 25 25 9 25 9 9 9 9 9 9 9 25 9 25 25 9 9 25 9 25 25 25 25 25 9 25 25 9 9 9 9 9 9 9 25 9 9 25 9 25 25 25 9 9 9 25 9 9 9 9 25 9 25 9 25 9 25 9 9 25 9 9 25 9 9 9 25 25 9 25 9 25 9 9 25 9 25 25 9 25 25 25 25 25 25 9 25 9 9 25 9 25 25 25 25 25 9 9 9 9 9 9 25 9 9 25 25 25 9 25 25 9 25 9 25 9 25 9 25 25 25 25 9 9 9 9 25 9 9 9 9 9 9 9 25 25 25 9 9 25 25 25 25 9 9 9 25 25 9 9 9 25 25 25 25 25 25 25 9 25 25 9 9 25 9 25 9 25 25 25 25 9 9 9 25 9 25 9 25 25 9 9 25 25 25 9 9 9 25 9 25 9 25 25 9 25 9 9 25 25 25 9 9 9 9 25 9 25 25 9 25 25 9 9 9 25 9 9 25 9 25 9 9 9 9 9 25 9 25 9 9 9 9 9 9 25 25 25 9 9 25 25 25 25 25 25 9 9 25 25 9 9 25 9 9 25 25 9 9 9 9 9 9 25 9 25 9 25 9 9 25 25 9 9 9 25 25 9 25 9 25 25 25 9 9 25 9 25 25 9 25 9 9 25 25 9 9 25 25 9 25 9 25 25 9 25 25 25 25 9 25 9 9 9 25 9 9 25 25 25 25 9 25 25 25 9 25 9 25 9 9 25 9 9 9 9 25 25 25 25 9 9 25 9 25 9 9 25 25 25 9 9 25 9 25 9 9 9 9 9 9 25 25 9 25 25 9 9 25 25 25 25 9 25 25 25 25 25 9 25 9 9 25 25 9 25 25 25 25 9 25 9 25 9 9 9 25 25 9 9 9 9 25 9 25 9 25 9 25 25 25 25 9 25 9 9 9 9 25 25 9 9 25 25 9 9 25 9 25 25 9 25 25 9 9 9 9 25 25 9 25 9 25 25 25 9 25 25 9 25 25 9 25 9 25 9 9 9 9 25 25 9 25 25 9 25 25 25 9 9 25 25 25 9 9 9 9 9 9 9 25 25 9 9 25 25 9 9 25 9 25 25 25 9 9 25 25 25 9 9 9 25 25 25 9 9 25 9 9 25 25 25 9 25 25 9 25 9 9 9 9 25 25 25 9 25 25 25 25 25 25 25 25 25 9 25 25 25 25 25 25 9 9 25 9 25 25 25 25 25 25 9 25 25 25 25 9 9 9 25 9 9 9 25 25 9 9 9 9 25 25 25 9 25 9 9 9 9 25 9 25 9 9 9 25 25 25 9 9 9 25 9 9 9 25 25 9 25 25 9 9 9 25 9 25 9 9 25 9 25 25 25 9 25 9 25 25 25 25 25 25 25 25 25 25 9 9 25 25 25 9 25 25 25 9 9 25 9 9 25 9 25 25 9 25 25 25 9 9 25 25 9 9 9 25 25 9 9 9 25 25 9 9 25 9 9 25 25 25 25 25 25 25 9 25 9 25 9 9 25 25 25 25 25 25 25 9 25 25 25 9 9 25 9 25 25 25 25 25 9 9 9 25 25 9 9 25 25 9 25 9 9 9 9 25 25 25 9 9 9 25 9 9 9 25 9 9 9 25 25 9 25 25 25 25 25 25 9 9 25 9 9 25 9 9 25 9 25 25 9 25 9 25 9 9 9 9 9 9 25 25 9 9 9 25 25 25 9 9 25 25 9 9 25 9 9 9 9 9 25 25 25 25 9 25 25 9 25 9 9 9 25 9 25 9 25 9 25 25 9 25 9 9 25 25 25 25 25 25 25 9 9 25 25 9 9 25 9 9 25 9 9 9 9 25 9 25 9 9 9 9 25 25 25 9 9 9 25 9 25 25 9 9 9 9 9 9 25 25 9 9 25 25 9 9 9 25 25 9 25 9 25 9 25 9 9 25 9 25 25 25 9 9 25 9 9 9 25 25 25 25 25 9 9 25 9 25 9 9 25 25 9 9 25 25 9 25 9 9 25 9 9 25 9 25 9 9 25 25 25 9 9 9 25 25 25 25 9 9 25 25 25 25 9 25 9 9 9 25 25 25 25 25 25 25 9 25 25 9 9 9 9 9 9 25 25 25 25 25 25 9 25 25 9 25 9 9 25 9 25 9 9 9 25 25 25 9 9 9 9 9 9 9 9 9 9 9 9 25 25 25 25 9 9 25 25 9 9 25 25 25 25 25 9 25 9 25 25 9 9 25 9 9 25 9 25 25 9 25 9 9 9 9 9 25 25 9 25 25 25 9 25 9 25 25 25 25 9 9 25 9 25 25 25 25 9 9 9 9 25 25 9 25 25 25 9 9 25 9 9 9 9 25 9 9 9 9 25 9 9 25 25 9 9 9 25 9 9 25 25 25 9 25 9 25 9 25 9 25 25 9 25 25 25 9 25 25 9 25 25 9 9 9 9 9 9 25 25 9 25 9 25 25 25 9 25 9 25 25 25 9 25 25 25 9 25 25 25 25 9 9 25 9 25 9 9 25 25 25 9 9 25 25 9 25 25 25 25 9 9 9 9 25 25 9 25 9 25 9 25 25 9 25 25 25 25 25 25 9 25 25 25 9 9 25 25 9 9 9 9 9 25 25 25 9 25 9 25 9 9 9 25 9 25 9 9 9 25 25 25 9 9 9 25 9 25 9 9 25 25 25 25 9 9 9 9 25 9 25 25 9 9 9 9 25 9 9 9 25 25 25 9 25 25 25 9 9 25 9 25 9 25 9 9 25 9 25 9 9 9 25 9 9 25 9 9 25 25 9 25 9 25 25 9 9 9 9 9 25 9 25 9 9 25 9 25 25 25 9 25 9 25 25 9 25 25 9 9 9 9 25 25 25 9 25 25 9 25 25 9 25 9 9 25 25 9 25 9 9 25 25 9 9 9 9 25 9 25 9 9 25 25 25 25 9 9 9 9 25 9 9 25 9 9 9 9 25 25 9 25 9 9 25 25 9 25 9 9 9 9 25 9 9 9 25 9 25 25 9 9 25 25 25 9 25 9 9 9 25 9 25 9 9 9 25 25 9 25 25 9 9 9 9 9 25 25 9 9 25 9 9 9 25 9 9 25 9 9 25 25 25 25 25 25 25 9 9 25 9 9 9 9 9 9 9 25 9 9 25 25 9 9 25 9 9 9 25 9 9 9 25 25 25 25 25 25 25 25 9 25 25 9 25 9 25 25 25 25 25 25 9 9 25 25 9 25 25 25 25 9 25 9 25 25 25 9 9 25 9 9 9 25 25 9 25 9 25 25 25 25 9 25 25 25 9 25 9 9 9 25 9 25 25 25 9 25 9 9 9 9 25 9 25 9 9 25 9 9 9 25 25 9 9 9 25 9 25 25 9 25 9 9 9 25 9 25 9 9 25 9 9 9 25 25 9 25 9 9 25 9 25 9 9 25 9 25 9 25 9 9 9 9 25 25 9 25 9 9 25 25 25 25 9 9 9 9 25 25 25 25 25 9 25 9 9 9 25 9 25 9 9 9 9 25 25 9 9 25 25 25 9 9 9 9 9 25 25 25 9 9 9 25 9 9 25 9 9 25 9 25 25 25 25 25 9 9 9 25 25 25 9 9 25 25 9 25 9 25 9 9 25 25 25 9 25 25 9 25 9 25 9 25 9 9 9 9 9 9 25 9 25 9 9 9 25 9 25 25 9 9 25 25 25 9 25 9 25 9 25 25 25 25 9 25 25 25 25 9 25 25 9 25 25 9 25 9 9 25 25 9 25 9 9 9 9 25 9 9 25 25 25 9 9 9 25 9 25 25 9 9 9 9 25 25 9 25 25 9 9 9 25 25 9 25 25 9 9 25 9 9 9 9 9 9 9 9 9 25 25 9 25 25 9 25 9 9 9 25 25 9 25 9 25 25 25 9 25 25 25 9 25 25 9 9 25 9 9 9 25 25 9 9 9 25 25 9 25 25 25 9 25 9 9 9 25 25 9 9 25 25 9 9 9 9 9 9 9 9 9 25 25 9 9 25 25 25 25 25 25 9 25 9 9 9 25 25 25 25 9 9 25 9 25 25 25 25 25 25 9 25 25 25 9 25 25 25 9 9 9 25 25 9 9 25 9 25 25 25 9 25 9 25 25 25 25 9 9 9 9 9 9 25 9 9 9 25 25 9 25 9 9 9 9 9 9 9 25 25 25 25 9 25 25 25 9 9 9 25 9 9 25 9 25 25 9 25 9 9 25 9 9 25 9 9 25 9 9 9 25 25 9 25 25 25 25 25 25 25 9 25 25 9 9 9 25 9 25 9 9 9 9 9 9 9 9 25 25 9 9 9 9 9 9 25 25 25 9 9 9 25 25 25 25 25 25 9 9 9 9 9 9 9 25 9 25 25 9 9 9 9 9 9 9 9 25 25 25 25 25 25 9 9 9 25 9 25 9 9 25 9 9 9 25 25 9 9 25 9 9 25 9 9 25 9 25 9 25 9 25 9 9 9 25 9 25 25 9 25 25 25 9 25 25 25 25 9 25 9 9 25 25 25 25 9 25 9 9 25 25 25 25 25 25 9 25 25 25 25 9 9 25 9 9 9 25 25 9 9 25 25 25 9 9 25 9 25 25 9 9 9 25 9 25 25 9 25 9 9 9 9 9 25 25 9 9 9 25 9 25 9 25 9 9 25 25 9 25 25 9 25 25 9 25 25 25 9 9 25 9 9 25 9 9 9 25 9 25 9 9 9 25 9 9 25 25 9 9 9 25 9 9 9 9 25 25 25 25 25 9 25 9 9 9 9 9 25 9 25 25 9 25 9 9 9 9 9 9 9 9 25 9 9 25 25 9 25 9 25 9 25 25 9 25 25 9 25 9 9 25 25 25 9 9 25 9 9 25 9 9 9 25 9 9 25 25 9 9 9 9 9 25 25 25 9 9 25 25 9 9 9 25 25 25 25 9 25 25 9 9 25 9 25 9 9 9 25 25 9 25 25 25 9 9 9 9 9 25 9 9 25 9 25 9 25 25 25 25 9 25 25 9 25 9 9 25 25 25 9 25 25 25 9 25 25 9 9 25 9 9 25 25 9 25 9 9 9 25 25 9 9 9 9 25 9 9 9 25 9 25 25 25 9 25 9 9 9 9 25 9 9 25 25 25 9 25 25 9 9 9 9 9 9 25 25 9 25 9 9 25 25 25 9 25 9 25 25 9 25 25 9 9 9 9 25 9 25 9 9 9 9 9 9 9 25 9 9 25 9 9 9 25 25 25 9 9 9 9 9 25 25 25 25 25 25 9 25 9 9 25 9 9 25 25 9 25 25 25 9 25 25 9 9 25 25 9 25 25 9 25 25 25 9 9 9 25 25 25 9 25 9 9 9 9 25 9 25 9 25 25 25 25 25 25 9 25 9 25 9 9 9 25 9 25 9 9 9 25 9 9 9 9 25 9 9 9 25 25 25 9 9 9 25 9 9 25 25 9 9 25 9 25 25 9 9 25 25 9 9 25 25 9 25 9 25 9 9 9 25 25 9 9 9 9 9 9 25 25 9 9 9 9 25 25 25 25 9 9 25 9 25 9 25 9 9 9 9 25 9 9 9 9 9 9 9 9 9 9 25 9 9 25 25 25 25 9 9 25 9 25 9 25 9 25 25 9 25 9 25 25 9 9 25 9 9 9 9 25 9 25 25 9 9 9 25 25 9 25 25 9 9 25 25 9 9 25 25 25 25 9 9 25 9 25 25 25 25 25 9 25 9 25 25 9 9 9 9 9 25 25 25 9 9 9 9 9 25 25 25 9 9 25 25 9 9 9 25 9 25 25 25 25 25 25 9 25 25 9 25 25 25 9 25 25 25 25 25 9 25 9 25 25 25 9 25 25 25 25 25 9 9 25 9 25 9 9 9 25 9 9 9 25 9 25 9 25 25 25 9 9 25 25 25 9 25 9 25 9 25 25 25 9 9 25 25 9 25 9 25 25 9 9 9 9 25 9 9 9 25 9 9 9 25 25 9 9 9 25 25 25 9 9 25 9 25 25 9 9 25 9 25 25 9 25 25 25 25 25 9 9 25 9 9 9 9 9 25 9 25 9 25 9 9 25 9 25 9 25 25 25 25 9 9 25 25 25 9 9 25 9 9 9 25 9 25 25 9 9 25 25 9 9 25 9 25 9 25 25 25 9 9 9 9 9 25 25 9 25 25 25 9 25 25 25 25 9 9 25 9 25 9 9 25 9 9 25 9 25 9 25 25 25 25 25 25 9 9 25 25 25 9 25 9 9 9 25 9 9 9 25 25 25 25 25 25 9 9 25 25 9 9 25 25 25 9 25 25 25 9 9 9 25 9 25 25 9 9 25 25 25 9 9 9 9 25 25 9 25 9 25 9 9 9 25 25 25 9 9 9 25 9 9 9 9 25 25 25 9 9 9 25 25 9 25 25 9 9 25 25 9 9 25 9 25 25 25 9 25 25 9 9 25 9 9 9 9 25 25 9 9 25 25 25 25 9 9 25 9 25 25 9 25 9 9 9 25 25 9 25 9 9 25 25 25 9 25 25 25 9 25 25 25 9 9 25 9 9 9 9 25 25 9 25 9 9 25 25 25 9 9 25 9 9 9 25 9 9 9 25 9 25 25 9 25 25 25 25 9 25 25 25 25 25 9 25 25 9 9 9 9 25 25 9 25 9 9 25 9 9 9 9 9 25 9 25 25 25 25 25 25 9 9 9 9 25 25 25 25 25 9 25 9 25 25 25 25 25 9 25 9 25 9 9 9 9 25 25 9 9 9 25 25 25 25 25 9 9 9 25 25 9 9 9 9 25 25 25 25 9 25 25 25 25 25 25 25 9 25 25 25 25 9 9 9 25 25 9 25 25 25 25 9 25 25 9 25 9 25 9 9 9 25 25 25 9 25 25 9 9 9 25 25 25 25 9 9 9 9 9 9 9 25 9 25 9 9 9 9 25 9 25 9 25 9 25 25 25 9 9 25 25 25 25 9 25 25 9 25 25 9 25 25 25 25 25 25 25 25 9 25 9 25 25 25 25 9 25 25 25 25 9 9 9 25 9 25 9 9 25 9 25 9 25 9 9 9 9 25 9 9 9 9 25 25 25 9 9 9 25 25 25 9 25 9 25 25 25 9 25 9 9 9 25 25 25 25 9 25 9 9 25 25 9 9 9 25 9 9 9 9 25 25 9 9 25 25 25 25 25 25 25 25 25 9 25 9 25 25 25 9 25 9 25 25 9 25 9 25 9 9 25 25 9 25 9 25 9 25 9 9 9 9 25 9 9 9 9 9 25 9 9 9 9 25 25 25 9 9 9 9 9 25 9 9 9 9 9 9 25 9 9 9 9 9 9 25 9 9 25 9 9 25 9 25 9 9 9 9 9 9 25 9 25 25 25 25 25 25 25 9 25 9 9 9 9 9 25 9 25 9 9 25 25 25 9 25 25 9 25 25 9 9 25 25 25 9 9 9 25 9 25 25 9 25 25 9 9 9 9 25 9 25 9 25 9 25 9 25 25 25 9 9 9 25 25 25 9 9 9 25 9 25 9 9 9 25 9 9 25 9 25 25 25 9 9 25 25 9 9 9 9 9 9 9 9 9 25 9 9 25 25 9 9 9 9 25 25 9 25 25 9 25 9 9 25 25 25 9 25 9 9 25 9 25 25 9 25 25 9 25 9 9 25 25 9 25 9 25 25 25 9 25 9 25 25 25 9 25 25 25 25 9 25 25 25 9 9 9 25 9 25 9 9 9 25 9 25 25 9 9 9 9 25 25 25 25 9 25 9 9 25 25 9 9 9 25 9 9 25 9 25 9 9 25 9 25 9 25 9 9 25 9 9 9 25 9 25 9 25 25 9 9 9 9 9 25 25 25 25 9 25 9 9 25 9 9 9 9 25 9 9 9 9 9 9 9 9 9 9 9 25 9 9 9 9 25 25 25 9 9 25 25 25 25 9 25 25 9 25 9 9 25 9 9 25 9 9 9 9 9 9 9 9 9 9 9 25 25 25 25 25 9 9 9 25 9 25 9 9 9 9 9 25 9 25 25 25 25 25 25 9 25 25 9 25 25 25 25 9 9 9 9 25 25 9 9 25 9 25 9 9 25 9 9 9 25 25 25 25 9 9 25 25 9 25 9 25 9 25 9 25 9 9 9 25 9 9 9 9 25 9 25 25 25 25 25 9 9 9 25 9 9 9 25 9 9 25 9 9 25 9 25 25 9 25 9 9 9 9 25 25 25 9 9 9 25 25 9 25 25 9 25 9 9 9 9 9 25 9 25 9 9 9 25 9 9 25 25 9 9 9 25 25 9 9 25 25 25 25 9 25 25 25 25 9 25 25 9 9 9 25 25 9 9 9 25 9 9 9 9 9 9 25 25 9 25 9 25 25 25 25 9 25 9 25 25 25 9 25 25 9 25 9 25 25 25 9 25 25 9 25 25 9 9 9 9 9 9 25 25 25 9 25 9 9 9 25 25 9 25 9 25 9 25 9 25 9 9 9 25 9 25 9 9 25 9 9 25 9 25 9 25 25 25 9 25 25 25 9 9 9 9 25 9 25 25 25 25 25 25 9 25 9 9 25 9 9 25 25 9 9 9 9 25 25 9 9 25 25 9 25 9 9 9 9 9 25 9 25 9 25 9 25 9 9 9 9 25 25 25 25 25 25 25 9 25 25 9 9 25 9 25 25 9 25 25 9 9 25 9 9 25 9 25 25 9 25 25 25 9 9 25 25 9 9 25 25 9 25 25 25 25 9 9 25 25 25 9 25 25 9 25 9 9 9 25 9 25 9 9 25 9 25 9 9 25 25 25 25 9 9 9 25 9 9 9 25 9 9 9 25 9 25 25 9 25 9 25 9 9 25 25 9 9 25 25 25 9 9 25 9 25 25 25 25 9 9 25 9 9 25 25 25 25 9 25 9 9 9 25 9 25 9 9 25 9 25 25 9 9 9 25 25 25 9 9 25 9 25 25 25 25 9 9 9 9 25 9 9 9 25 9 25 9 25 25 9 9 9 9 9 9 25 25 25 9 9 25 9 25 9 25 9 25 25 9 25 25 25 9 25 9 9 9 9 25 25 9 9 25 25 9 25 9 9 25 9 9 9 25 25 9 9 9 25 9 9 25 25 25 25 9 9 25 9 9 25 9 25 25 25 9 25 25 9 25 9 25 25 9 9 25 9 9 25 9 9 25 25 25 25 9 25 25 25 9 25 9 9 9 25 25 9 25 9 25 9 9 9 9 9 9 25 25 9 9 25 25 25 9 9 9 9 9 25 25 9 25 9 9 25 25 25 9 9 9 25 25 9 25 25 25 25 9 9 25 9 25 9 25 25 25 9 25 25 25 9 25 9 9 25 9 9 9 9 9 9 25 25 25 9 9 9 25 9 9 9 9 25 25 9 9 9 9 25 25 25 25 9 9 9 25 9 9 25 9 9 9 25 9 25 25 9 25 9 25 25 9 25 9 25 25 9 25 25 25 9 25 9 9 25 9 25 25 9 25 25 25 25 9 25 9 25 25 25 25 9 9 25 9 9 25 25 9 9 25 25 25 9 25 25 25 9 25 9 9 9 25 25 25 25 9 25 9 9 9 25 9 9 9 9 9 25 9 9 9 25 25 25 25 9 9 9 9 25 9 25 25 25 9 9 9 25 25 9 25 25 25 25 25 25 9 25 25 9 25 25 25 9 9 9 25 9 9 25 9 9 9 25 25 25 9 25 9 25 25 25 25 9 9 9 25 9 9 9 9 25 25 25 9 25 25 25 9 25 9 9 25 25 25 9 9 25 25 9 25 9 25 9 9 25 9 9 9 9 9 9 9 9 9 9 25 25 25 25 25 25 25 9 9 25 25 9 9 9 9 25 25 25 25 25 25 9 25 25 9 9 25 9 9 25 9 25 25 25 25 9 25 9 9 25 25 25 9 9 9 9 25 25 9 25 9 25 25 9 9 25 9 25 9 9 25 9 25 9 9 9 9 25 25 9 9 9 9 9 9 9 25 9 25 25 25 25 9 9 25 9 25 25 25 25 25 9 9 25 9 9 25 9 25 9 25 25 25 25 9 25 25 25 25 9 9 9 25 9 9 25 9 9 9 25 25 9 9 25 25 9 25 9 25 9 25 9 9 9 25 9 25 9 25 25 9 25 25 25 25 9 9 25 9 25 9 25 25 9 25 9 25 9 9 9 25 25 9 25 25 25 25 25 25 9 9 25 25 25 9 9 25 25 25 25 9 25 25 25 9 9 25 25 9 25 25 25 25 25 9 9 9 25 25 25 25 25 9 9 25 9 9 9 25 25 9 25 25 25 9 25 25 25 9 25 25 25 25 9 9 25 9 9 25 9 25 9 25 25 25 9 25 25 25 25 25 25 9 9 9 25 25 25 9 25 9 25 9 25 25 9 25 9 9 9 9 25 9 25 9 25 9 25 25 25 9 9 9 25 9 9 9 25 25 9 9 25 9 9 25 25 9 9 25 9 9 25 25 9 25 25 9 25 9 25 9 25 25 9 9 25 9 9 9 25 9 9 9 9 9 25 9 9 25 25 9 25 25 25 9 9 9 9 25 9 25 25 25 9 25 25 25 25 25 25 9 9 25 9 9 25 9 9 25 25 9 25 25 25 9 25 25 9 25 9 9 9 25 9 9 9 25 25 25 25 9 25 25 25 25 25 9 25 9 25 25 9 9 9 25 9 25 9 9 9 9 9 9 25 9 9 25 9 25 9 25 25 25 9 9 9 25 9 9 25 25 25 25 25 25 9 25 9 9 25 9 9 25 9 25 9 9 9 9 25 9 25 9 25 25 9 9 9 9 9 9 25 25 25 9 9 9 25 9 9 9 9 25 25 9 9 25 9 25 25 25 25 9 25 25 25 25 25 9 25 25 9 9 9 25 9 9 25 25 9 9 25 9 25 9 9 25 9 9 9 25 25 9 9 9 25 25 25 9 25 9 25 25 9 25 25 9 25 9 25 25 9 9 25 25 9 25 25 9 25 25 9 9 25 9 9 9 25 25 9 25 25 25 9 25 9 25 25 25 9 9 9 9 9 25 9 9 9 25 25 25 9 25 25 9 25 25 9 9 9 25 25 25 9 9 9 25 25 25 9 25 25 25 9 25 9 9 9 25 25 25 9 25 9 9 25 25 25 9 25 9 25 25 25 25 25 9 9 9 25 25 9 25 9 9 9 9 9 9 25 25 25 9 9 25 9 9 9 25 9 9 25 25 25 25 9 9 25 25 9 9 9 9 25 9 9 9 9 9 9 9 25 9 9 9 25 9 9 9 25 9 9 25 25 25 9 25 25 25 9 25 25 9 9 25 9 9 25 25 25 25 25 9 25 25 9 25 25 9 25 9 9 25 25 25 9 25 25 25 9 25 9 9 9 9 25 9 25 9 25 9 25 9 9 25 25 25 9 9 25 25 25 9 9 9 25 9 9 9 25 9 9 25 9 9 9 25 9 25 25 9 25 25 9 25 9 9 9 9 9 9 25 25 9 25 9 25 25 9 9 9 9 9 25 25 9 25 9 9 9 9 9 25 25 25 25 25 25 25 25 25 25 9 25 25 25 25 25 9 25 25 9 25 25 25 9 25 25 25 25 25 25 9 25 9 25 9 25 9 25 9 25 25 9 9 9 25 25 25 25 9 9 25 9 25 9 9 9 25 25 9 25 9 9 9 9 25 9 25 25 25 25 9 9 25 25 25 9 9 9 25 25 25 9 25 9 25 25 25 9 25 25 25 25 25 25 9 9 25 25 25 25 25 25 25 9 9 9 25 25 25 9 9 9 25 25 9 9 9 25 9 25 9 9 25 25 25 25 25 25 9 9 9 25 9 25 9 9 9 25 25 25 25 25 25 9 9 25 9 25 25 25 9 25 25 25 25 9 9 9 25 25 25 25 9 25 25 9 25 25 25 25 9 25 9 25 25 25 9 9 9 25 25 9 25 9 9 9 9 9 9 9 25 25 25 9 9 9 9 9 25 9 25 25 25 25 9 9 9 25 9 9 9 25 25 25 25 25 25 9 25 9 9 25 25 25 25 9 9 25 9 25 25 25 25 9 9 25 25 25 9 25 25 25 25 9 9 9 25 9 9 25 9 9 9 25 9 25 25 9 9 25 25 9 9 9 9 25 9 25 9 9 25 25 25 9 9 9 9 25 9 25 9 9 25 9 25 25 25 25 25 9 9 25 9 25 25 9 9 25 9 9 9 25 25 25 25 25 25 25 25 25 9 25 25 9 9 25 25 25 9 25 25 9 9 25 25 25 9 25 25 9 25 25 25 25 9 9 9 9 25 25 25 9 25 25 9 25 9 25 9 9 9 9 9 9 25 9 9 25 25 25 25 25 9 9 9 9 9 9 9 9 9 9 9 25 25 9 9 25 25 9 25 9 9 25 9 9 25 9 25 25 25 25 9 25 25 9 9 9 9 9 9 9 9 9 25 25 9 25 9 25 9 25 25 9 25 9 9 9 9 9 25 9 25 25 25 9 25 25 9 9 9 9 9 9 9 9 9 9 25 9 9 25 9 25 9 25 25 9 25 9 9 25 9 25 9 25 9 9 25 9 9 25 25 9 25 25 9 25 9 9 9 9 25 9 25 25 25 25 9 9 25 9 25 25 9 9 9 9 9 25 9 9 9 25 9 9 25 25 25 25 25 25 25 9 25 9 9 9 25 9 25 9 9 9 25 9 9 9 9 9 25 25 9 9 9 25 9 25 9 25 9 25 25 25 25 9 9 25 25 25 25 9 9 9 9 25 9 25 25 25 25 25 9 9 25 9 25 25 9 25 9 9 9 25 9 25 9 9 25 25 25 9 25 25 9 25 25 25 9 9 9 9 25 9 9 9 9 25 25 9 9 9 25 9 25 25 25 25 25 9 9 9 25 25 9 25 25 25 9 25 25 9 25 25 9 25 25 25 9 25 25 9 25 9 9 9 25 9 9 9 9 9 25 25 9 25 25 25 9 25 9 25 9 9 9 9 25 9 25 9 25 25 9 9 25 25 9 25 25 9 25 25 25 9 25 25 25 9 9 25 25 9 25 25 9 25 9 9 25 25 9 9 9 9 9 9 25 25 25 9 25 9 9 9 25 25 25 9 25 25 9 9 9 25 9 9 9 9 9 9 25 9 9 9 25 25 9 9 9 25 25 25 25 25 9 9 9 25 25 25 25 25 25 25 9 25 25 9 25 9 9 25 9 25 25 25 9 25 9 9 9 25 25 25 9 25 9 9 25 25 25 9 9 9 25 9 9 9 9 25 9 25 9 25 9 25 9 9 9 9 9 9 25 25 9 25 25 9 25 9 25 9 9 25 25 25 25 25 25 25 9 9 9 25 25 9 9 25 9 25 9 9 25 25 9 25 25 25 25 9 25 9 25 25 25 9 9 9 25 25 9 25 25 9 9 9 25 25 9 25 9 9 9 25 25 9 25 9 25 9 25 9 25 9 25 9 9 25 25 25 9 25 9 9 25 25 9 9 9 9 9 9 9 9 25 9 9 9 9 25 25 25 25 9 25 9 9 25 25 25 9 25 9 25 25 9 9 9 9 9 9 9 9 25 9 25 25 9 9 25 25 25 25 9 25 9 9 25 9 25 25 9 25 25 25 9 25 25 9 9 25 25 9 25 9 25 25 25 25 25 9 25 9 25 25 25 9 9 9 9 25 25 9 9 25 9 25 9 25 25 9 25 9 25 9 9 9 25 25 25 9 9 9 9 25 9 25 25 9 9 25 25 25 9 9 9 9 25 25 25 9 25 9 25 9 25 25 9 9 25 9 25 25 9 25 9 9 25 9 9 25 25 9 9 25 9 25 25 25 9 25 25 25 25 9 9 9 9 9 25 25 9 9 9 25 25 9 25 9 9 9 25 9 9 9 25 9 25 25 25 25 9 9 9 25 25 9 9 25 25 25 9 25 25 9 9 9 9 9 25 25 9 9 25 9 9 9 9 25 25 25 9 25 25 25 25 9 25 25 25 9 9 25 9 25 25 9 25 9 9 9 25 9 25 9 9 25 9 9 25 9 25 25 25 25 9 9 25 9 25 25 9 25 9 9 9 9 25 9 9 25 9 25 9 25 25 9 25 25 25 9 25 9 25 25 25 9 25 25 9 25 9 9 9 9 25 25 9 9 25 9 25 25 25 25 25 9 9 9 9 25 9 25 25 25 9 25 25 9 9 25 25 9 9 25 9 25 9 25 25 25 25 9 25 25 9 9 25 9 9 25 25 9 25 9 25 25 25 25 25 25 9 9 25 9 9 9 25 9 25 9 9 9 25 25 25 25 25 25 25 25 9 9 25 25 9 9 25 9 25 9 25 9 25 25 9 25 25 9 25 9 9 25 9 25 9 9 9 25 25 25 9 25 25 25 25 9 9 9 9 25 9 25 25 25 9 9 9 25 9 9 25 9 25 9 9 9 9 9 25 25 9 9 9 25 25 25 25 25 25 25 25 9 25 9 25 25 9 9 25 9 9 9 25 25 9 25 25 9 25 25 25 25 25 9 25 9 25 9 9 25 9 25 25 25 25 9 9 9 9 25 9 9 9 25 9 9 9 25 25 9 9 9 25 25 9 9 9 9 25 9 25 25 25 9 9 9 9 9 9 25 9 25 25 9 9 25 9 25 25 25 25 25 9 9 25 9 25 25 9 9 25 25 25 9 25 25 9 9 25 25 25 25 9 9 25 9 9 9 25 25 25 9 9 25 25 25 9 9 9 9 9 25 9 25 25 25 9 9 25 25 25 9 25 25 25 9 25 25 9 25 9 9 25 9 25 9 9 25 9 9 9 9 9 9 25 25 25 25 25 25 25 9 25 9 25 9 9 25 25 25 9 25 25 25 9 9 9 9 9 9 9 9 25 9 9 9 9 25 9 25 9 25 9 9 25 25 9 25 9 9 9 9 25 25 9 25 9 9 25 9 9 9 9 25 9 9 9 9 25 9 9 9 25 9 9 9 25 9 25 9 9 9 9 9 25 9 25 25 9 25 25 25 25 25 9 25 25 9 9 25 9 9 25 25 9 25 25 25 25 25 25 9 25 9 9 9 9 25 9 25 9 25 9 25 25 9 25 9 25 25 25 25 25 9 25 25 25 9 9 25 25 9 25 9 9 25 25 9 9 25 25 25 